TIP.Original.Linear/prod_prop_34.smt2
(set-logic HORN)
(declare-datatypes ((Nat_590 0)) (((Z_2079 ) (S_479 (projS_196 Nat_590)))))
(declare-fun diseqNat_590 (Nat_590 Nat_590) Bool)
(declare-fun projS_197 (Nat_590 Nat_590) Bool)
(declare-fun isZ_446 (Nat_590) Bool)
(declare-fun isS_446 (Nat_590) Bool)
(assert (forall ((x_55647 Nat_590))
	(projS_197 x_55647 (S_479 x_55647))))
(assert (isZ_446 Z_2079))
(assert (forall ((x_55649 Nat_590))
	(isS_446 (S_479 x_55649))))
(assert (forall ((x_55650 Nat_590))
	(diseqNat_590 Z_2079 (S_479 x_55650))))
(assert (forall ((x_55651 Nat_590))
	(diseqNat_590 (S_479 x_55651) Z_2079)))
(assert (forall ((x_55652 Nat_590) (x_55653 Nat_590))
	(=> (diseqNat_590 x_55652 x_55653)
	    (diseqNat_590 (S_479 x_55652) (S_479 x_55653)))))
(declare-fun x_55625 (Nat_590 Nat_590 Nat_590) Bool)
(assert (forall ((x_55633 Nat_590) (z_2080 Nat_590) (y_2314 Nat_590))
	(=> (x_55625 x_55633 z_2080 y_2314)
	    (x_55625 (S_479 x_55633) (S_479 z_2080) y_2314))))
(assert (forall ((x_55634 Nat_590))
	(x_55625 x_55634 Z_2079 x_55634)))
(declare-fun mult_348 (Nat_590 Nat_590 Nat_590 Nat_590) Bool)
(assert (forall ((x_55635 Nat_590) (x_55636 Nat_590) (x_55628 Nat_590) (y_2315 Nat_590) (z_2081 Nat_590))
	(=>	(and (x_55625 x_55636 y_2315 z_2081)
			(mult_348 x_55635 x_55628 y_2315 x_55636))
		(mult_348 x_55635 (S_479 x_55628) y_2315 z_2081))))
(assert (forall ((x_55638 Nat_590) (y_2315 Nat_590))
	(mult_348 x_55638 Z_2079 y_2315 x_55638)))
(declare-fun x_55629 (Nat_590 Nat_590 Nat_590) Bool)
(assert (forall ((x_55639 Nat_590) (x_55640 Nat_590) (z_2082 Nat_590) (y_2316 Nat_590))
	(=>	(and (x_55629 x_55640 z_2082 y_2316)
			(x_55625 x_55639 y_2316 x_55640))
		(x_55629 x_55639 (S_479 z_2082) y_2316))))
(assert (forall ((y_2316 Nat_590))
	(x_55629 Z_2079 Z_2079 y_2316)))
(assert (forall ((x_55643 Nat_590) (x_55644 Nat_590) (x_55631 Nat_590) (y_2317 Nat_590))
	(=>	(and true
			(diseqNat_590 x_55643 x_55644)
			(x_55629 x_55643 x_55631 y_2317)
			(mult_348 x_55644 x_55631 y_2317 Z_2079))
		false)))
(check-sat)
